c This is QMaxSAT 2017 based on 14.07
c This is Glucose 3.0
c This is MiniSat 2.2.0
c WARNING: for repeatability, setting FPU to use double precision
c card = mrwto, comp = 0, pmodel = 0, narr = 2, mct = 42, verb = 0
cr firstCPXsol 0 0 0
c top = 127531
c |  Number of variables:    70768                                            |
c |  Number of clauses:      54081136                                         |
c |  Weight of hard clauses: 127531                                           |
c |  Number of soft clauses: 3444                                             |
c |  Number of unit soft clauses: 3444                                        |
c |  Maximum Cardinality (by unit): 255060       (255060      )               |
c last restart ## conflicts  :  364 19264 
o 1702 | cpuTime 2916.31 s
c Sum of weights = 127530
c A number of soft clauses remained = 1722
c MRWTO encoding for Pseudo-Boolean Constraints
c sizeMax=1702
c No.0 Divisor=12	generated by pow1
c No.1 Divisor=12	generated by pow1
c No.2 Divisor=12	generated by pow1
c p0= 12	p1= 12	p2= 12	
c number of digits = 4
c linkingVar[0].size = 12, linkingVar[1].size = 12, linkingVar[2].size = 12, linkingVar[3].size = 1, 
c Pseudo-Boolean Constraints: 36092 variables and 345530 clauses
c Sum of weights = 127530
c A number of soft clauses remained = 1722
c MRWTO encoding for Pseudo-Boolean Constraints
c sizeMax=1702
c No.0 Divisor=12	generated by pow1
c No.1 Divisor=12	generated by pow1
c No.2 Divisor=12	generated by pow1
c p0= 12	p1= 12	p2= 12	
c number of digits = 4
c linkingVar[0].size = 12, linkingVar[1].size = 12, linkingVar[2].size = 12, linkingVar[3].size = 1, 
c Pseudo-Boolean Constraints: 36092 variables and 345530 clauses
s UNKNOWN
c Search is stopped by a limit (maybe time-limit)
cr positiVarArr: [ | 4@1(1->4) | 132@1(4->6) | 184@1(5->16) | 222@1(6->12) | 477@1(12->15) | 523@1(13->19) | 568@1(14->22) | 614@1(15->26) | 654@1(16->24) | 787@1(19->31) | 836@1(20->38) | 887@1(22->5) | 1002@1(24->36) | 1064@1(26->14) | 1177@1(29->1) | 1300@1(31->40) | 1490@1(36->20) | 1567@1(38->13) | 1667@1(40->29) | 1785@2(1->21) | 1848@2(2->42) | 1859@2(3->11) | 2017@2(7->1) | 2088@2(8->30) | 2134@2(9->34) | 2151@2(10->9) | 2225@2(11->41) | 2459@2(17->23) | 2481@2(18->3) | 2621@2(21->17) | 2725@2(23->37) | 2807@2(25->35) | 2881@2(27->25) | 2906@2(28->8) | 3021@2(30->39) | 3076@2(32->10) | 3110@2(33->2) | 3177@2(34->27) | 3225@2(35->33) | 3308@2(37->32) | 3378@2(39->18) | 3451@2(41->7) | 3514@2(42->28) | ]
cr the 1-th chain: [ 1->4->6->12->15->26->14->22->5->16->24->36->20->38->13->19->31->40->29->1 ] (#non-depot=18) {#cumul.=19}
cr the 2-th chain: [ 1->21->17->23->37->32->10->9->34->27->25->35->33->2->42->28->8->30->39->18->3->11->41->7->1 ] (#non-depot=23) {#cumul.=42}
c Latest Answer = 0 by 1 loops
c restarts              : 124933
c conflicts             : 14177017       (3955 /sec)
c decisions             : 2111594611     (0.00 % random) (589013 /sec)
c propagations          : 19750904009    (5509364 /sec)
c conflict literals     : 3238901772     (3.14 % deleted)
c Memory used           : 5358.00 MB
c CPU time              : 3584.97 s
